0 89 
1 89 
2 88 
3 89 
4 92 
5 98 
6 97 
7 98 
8 98 
9 98 
10 99 
11 98 
12 96 
13 95 
14 95 
15 94 
16 93 
17 92 
18 90 
19 88 
20 87 
21 87 
22 86 
23 85 
24 84 
25 80 
26 78 
27 76 
28 75 
29 74 
30 76 
31 74 
32 70 
33 68 
34 65 
35 62 
36 59 
37 55 
38 52 
39 55 
40 54 
41 53 
42 50 
43 50 
44 48 
45 47 
46 43 
47 43 
48 43 
49 42 
50 42 
51 40 
52 39 
53 38 
54 37 
55 36 
56 33 
57 30 
58 32 
59 31 
60 31 
61 31 
62 34 
63 34 
64 34 
65 33 
66 34 
67 33 
68 32 
69 31 
70 29 
71 26 
72 24 
73 23 
74 22 
75 22 
76 22 
77 21 
78 19 
79 17 
80 16 
81 16 
82 14 
83 13 
84 15 
85 14 
86 13 
87 13 
88 12 
89 11 
90 10 
91 9 
92 8 
93 8 
94 5 
95 5 
96 3 
97 1 
98 0 
99 0 

